language Essence 1.3

letting class be
        function(1 --> 4, 2 --> 9, 3 --> 5, 4 --> 6, 5 --> 6, 6 --> 9, 7 --> 5, 8 --> 9, 9 --> 8, 10 --> 3, 11 --> 7,
                 12 --> 5, 13 --> 3, 14 --> 1, 15 --> 10, 16 --> 2, 17 --> 10, 18 --> 3, 19 --> 9, 20 --> 6, 21 --> 8,
                 22 --> 1, 23 --> 10, 24 --> 7, 25 --> 3, 26 --> 7, 27 --> 4, 28 --> 7)
letting deck_length be 100
letting deck_width be 20
letting length be
        function(1 --> 1, 2 --> 1, 3 --> 2, 4 --> 1, 5 --> 1, 6 --> 1, 7 --> 1, 8 --> 1, 9 --> 1, 10 --> 2, 11 --> 1,
                 12 --> 25, 13 --> 1, 14 --> 9, 15 --> 1, 16 --> 1, 17 --> 1, 18 --> 1, 19 --> 1, 20 --> 1, 21 --> 1,
                 22 --> 1, 23 --> 1, 24 --> 1, 25 --> 1, 26 --> 1, 27 --> 1, 28 --> 1)
letting n_classes be 10
letting n_containers be 28
letting separation be function({8, 10} --> 32)
letting width be
        function(1 --> 12, 2 --> 5, 3 --> 18, 4 --> 6, 5 --> 6, 6 --> 13, 7 --> 16, 8 --> 12, 9 --> 5, 10 --> 4,
                 11 --> 8, 12 --> 20, 13 --> 14, 14 --> 18, 15 --> 14, 16 --> 13, 17 --> 3, 18 --> 13, 19 --> 15,
                 20 --> 11, 21 --> 1, 22 --> 16, 23 --> 2, 24 --> 6, 25 --> 7, 26 --> 13, 27 --> 8, 28 --> 15)
